(set-info :smt-lib-version 2.6)
(set-logic QF_LRA)
(set-info :source |
Generated by: Mădălina Erașcu, Răzvan Meteș 
Generated on: 2019-03-30
Application: Wordpress11
Target solver: Z3
|)
(set-info :license "https://creativecommons.org/licenses/by/4.0/")
(set-info :category "industrial")
(set-info :minimum